DATASET = "thpack5";
INSTANCE = "083";

WIDTH = 233;
HEIGHT = 220;
LENGTH = 587;

NO_OF_SHAPES = 12;
size = [|
  83,71,46 |
  76,63,54 |
  91,56,40 |
  61,42,34 |
  84,67,47 |
  95,79,57 |
  90,80,23 |
  69,43,28 |
  72,69,48 |
  83,64,58 |
  99,94,24 |
  96,69,53 |
|];

verticality = [|
  1,1,1 |
  1,1,1 |
  0,1,1 |
  1,1,1 |
  1,1,1 |
  1,1,1 |
  0,0,1 |
  0,1,1 |
  1,1,1 |
  1,1,1 |
  0,0,1 |
  1,1,1 |
|];

box_count = [
  14,
  11,
  9,
  12,
  12,
  12,
  11,
  12,
  5,
  9,
  13,
  7,
];
